c 
p cnf 116 192
13 17 21 0
-21 9 22 0
-22 2 -14 0
-15 19 -16 0
20 -13 23 0
-23 -18 24 0
-24 -12 4 0
6 -7 25 0
-25 2 26 0
-26 -3 1 0
-11 -1 27 0
-27 -20 17 0
14 -19 28 0
-28 -12 9 0
18 29 30 0
18 29 -30 0
18 -29 30 0
18 -29 -30 0
20 5 31 0
-31 -19 32 0
-32 13 7 0
-18 19 33 0
-18 19 -33 0
17 -19 34 0
-34 -20 -13 0
-6 12 -20 0
-5 14 1 0
-8 -13 35 0
-35 -14 36 0
-36 -16 -4 0
8 14 37 0
-37 -1 38 0
-38 -20 15 0
4 -2 -9 0
-11 -14 -1 0
-16 39 40 0
-16 39 -40 0
-16 -39 40 0
-16 -39 -40 0
4 41 42 0
4 41 -42 0
4 -41 42 0
4 -41 -42 0
16 8 43 0
-43 13 -9 0
20 -7 44 0
-44 14 45 0
-45 11 12 0
9 3 46 0
9 3 -46 0
17 12 16 0
-14 4 47 0
-14 4 -47 0
-14 2 48 0
-14 2 -48 0
-10 49 50 0
-10 49 -50 0
-10 -49 50 0
-10 -49 -50 0
-3 17 51 0
-51 -9 5 0
16 13 52 0
16 13 -52 0
-10 1 53 0
-53 2 -18 0
19 10 -5 0
-11 -3 5 0
10 -19 54 0
-54 -9 55 0
-55 16 6 0
-7 56 57 0
-7 56 -57 0
-7 -56 57 0
-7 -56 -57 0
-12 58 59 0
-12 58 -59 0
-12 -58 59 0
-12 -58 -59 0
3 60 61 0
3 60 -61 0
3 -60 61 0
3 -60 -61 0
-2 -17 62 0
-62 -15 11 0
11 63 64 0
11 63 -64 0
11 -63 64 0
11 -63 -64 0
-11 -4 65 0
-65 -13 66 0
-66 19 -3 0
-5 -18 67 0
-5 -18 -67 0
-7 -1 68 0
-7 -1 -68 0
-13 69 70 0
-13 69 -70 0
-13 -69 70 0
-13 -69 -70 0
9 7 71 0
9 7 -71 0
-16 12 72 0
-72 7 6 0
-7 73 74 0
-7 73 -74 0
-7 -73 74 0
-7 -73 -74 0
-12 5 -10 0
8 -17 75 0
-75 -3 76 0
-76 -20 -5 0
8 -12 4 0
-1 77 78 0
-1 77 -78 0
-1 -77 78 0
-1 -77 -78 0
19 79 80 0
19 79 -80 0
19 -79 80 0
19 -79 -80 0
2 81 82 0
2 81 -82 0
2 -81 82 0
2 -81 -82 0
-4 -2 83 0
-4 -2 -83 0
3 84 85 0
3 84 -85 0
3 -84 85 0
3 -84 -85 0
3 -16 86 0
-86 4 -6 0
-1 -8 -7 0
10 87 88 0
10 87 -88 0
10 -87 88 0
10 -87 -88 0
-2 7 89 0
-89 17 90 0
-90 9 10 0
-9 91 92 0
-9 91 -92 0
-9 -91 92 0
-9 -91 -92 0
11 17 93 0
-93 -8 94 0
-94 7 14 0
-14 19 95 0
-14 19 -95 0
-15 17 96 0
-96 11 97 0
-97 18 -3 0
18 14 -5 0
-1 -11 98 0
-1 -11 -98 0
-1 -9 99 0
-1 -9 -99 0
-3 -18 100 0
-100 -8 101 0
-101 -17 -15 0
8 -11 102 0
-102 17 -18 0
-10 7 103 0
-103 -2 104 0
-104 14 -4 0
3 -15 -8 0
-2 -5 6 0
14 -16 105 0
-105 5 106 0
-106 -4 9 0
8 -11 18 0
-18 -4 107 0
-107 -17 108 0
-108 -16 6 0
-20 -15 109 0
-20 -15 -109 0
9 17 110 0
9 17 -110 0
-10 3 111 0
-10 3 -111 0
18 11 112 0
-112 -20 1 0
14 -7 -10 0
16 -2 20 0
16 -19 113 0
-113 -9 -6 0
-8 2 114 0
-114 -4 16 0
19 14 -7 0
-4 -10 115 0
-115 19 116 0
-116 18 -17 0
